myproject/instances/20nodes/rnd24_20.tsp
NAME : rnd24_20.tsp
TYPE : TSP
DIMENSION : 20
EDGE_WEIGHT_TYPE : EUC_2D
NODE_COORD_SECTION
0 733 883
1 308 543
2 922 188
3 738 875
4 207 14
5 193 500
6 87 39
7 903 851
8 933 588
9 885 338
10 261 772
11 2 354
12 217 47
13 924 469
14 573 690
15 333 328
16 877 587
17 701 678
18 532 716
19 168 334
