myproject/instances/20nodes/rnd24_20.opt.tour
NAME : rnd24_20.tsp.tsp.opt.tour
TYPE : TOUR
DIMENSION : 20
TOUR_SECTION
1
10
16
8
15
14
5
18
20
6
13
12
2
3
19
4
7
11
9
17
-1